nK = 1272;
nT = 6;
nI = 14;
L = 35;
TT = 290;
np = 1;
nc = 3;
b = [67, 33, 58, 49, 23, 34, 35, 69, 39, 68, 57, 32, 37, 59];
d = [116, 125, 98, 104, 110, 135, 88, 116, 92, 118, 102, 99, 81, 91];
m = [2.1, 1.5, 1.7, 2.2, 1.3, 2, 1.6, 1.8, 1.6, 2.4, 2, 2.3, 1.6, 1.4];
pt = [0.22, 0.35, 0.34, 0.33, 0.3, 0.23];
st = [10.12, 16.1, 15.98, 17.82, 15.6, 12.65];
arc = {<1, 0, 1, 1, 0, 0, 0, [1, 1, 1, 1, 1, 1]>, <2, 1, 2, 1, 0, 0, 0, [1, 1, 1, 1, 1, 1]>, <3, 2, 3, 1, 0, 0, 0, [1, 1, 1, 1, 1, 1]>, <4, 3, 4, 1, 0, 0, 0, [1, 1, 1, 1, 1, 1]>, <5, 4, 5, 1, 0, 0, 0, [1, 1, 1, 1, 1, 1]>, <6, 5, 6, 1, 0, 0, 0, [1, 1, 1, 1, 1, 1]>, <7, 6, 7, 1, 0, 0, 0, [1, 1, 1, 1, 1, 1]>, <8, 7, 8, 1, 0, 0, 0, [1, 1, 1, 1, 1, 1]>, <9, 8, 9, 1, 0, 0, 0, [1, 1, 1, 1, 1, 1]>, <10, 9, 10, 1, 0, 0, 0, [1, 1, 1, 1, 1, 1]>, <11, 10, 11, 1, 0, 0, 0, [1, 1, 1, 1, 1, 1]>, <12, 11, 12, 1, 0, 0, 0, [1, 1, 1, 1, 1, 1]>, <13, 12, 13, 1, 0, 0, 0, [1, 1, 1, 1, 1, 1]>, <14, 13, 14, 1, 0, 0, 0, [1, 1, 1, 1, 1, 1]>, <15, 14, 15, 1, 0, 0, 0, [1, 1, 1, 1, 1, 1]>, <16, 15, 16, 1, 0, 0, 0, [1, 1, 1, 1, 1, 1]>, <17, 16, 17, 1, 0, 0, 0, [1, 1, 1, 1, 1, 1]>, <18, 17, 18, 1, 0, 0, 0, [1, 1, 1, 1, 1, 1]>, <19, 18, 19, 1, 0, 0, 0, [1, 1, 1, 1, 1, 1]>, <20, 19, 20, 1, 0, 0, 0, [1, 1, 1, 1, 1, 1]>, <21, 20, 21, 1, 0, 0, 0, [1, 1, 1, 1, 1, 1]>, <22, 21, 22, 1, 0, 0, 0, [1, 1, 1, 1, 1, 1]>, <23, 22, 23, 1, 0, 0, 0, [1, 1, 1, 1, 1, 1]>, <24, 23, 24, 1, 0, 0, 0, [1, 1, 1, 1, 1, 1]>, <25, 24, 25, 1, 0, 0, 0, [1, 1, 1, 1, 1, 1]>, <26, 25, 26, 1, 0, 0, 0, [1, 1, 1, 1, 1, 1]>, <27, 26, 27, 1, 0, 0, 0, [1, 1, 1, 1, 1, 1]>, <28, 27, 28, 1, 0, 0, 0, [1, 1, 1, 1, 1, 1]>, <29, 28, 29, 1, 0, 0, 0, [1, 1, 1, 1, 1, 1]>, <30, 29, 30, 1, 0, 0, 0, [1, 1, 1, 1, 1, 1]>, <31, 30, 31, 1, 0, 0, 0, [1, 1, 1, 1, 1, 1]>, <32, 31, 32, 1, 0, 0, 0, [1, 1, 1, 1, 1, 1]>, <33, 32, 33, 1, 0, 0, 0, [1, 1, 1, 1, 1, 1]>, <34, 33, 34, 1, 0, 0, 0, [1, 1, 1, 1, 1, 1]>, <35, 34, 35, 1, 0, 0, 0, [1, 1, 1, 1, 1, 1]>, <36, 5, 17, 12, 1, 1, 0, [1, 1, 0, 0, 0, 0]>, <37, 6, 18, 12, 1, 1, 0, [1, 1, 0, 0, 0, 0]>, <38, 14, 26, 12, 1, 1, 0, [1, 1, 0, 0, 0, 0]>, <39, 15, 27, 12, 1, 1, 0, [1, 1, 0, 0, 0, 0]>, <40, 19, 31, 12, 1, 1, 0, [1, 1, 0, 0, 0, 0]>, <41, 20, 32, 12, 1, 1, 0, [1, 1, 0, 0, 0, 0]>, <42, 21, 33, 12, 1, 1, 0, [1, 1, 0, 0, 0, 0]>, <43, 22, 34, 12, 1, 1, 0, [1, 1, 0, 0, 0, 0]>, <44, 23, 35, 12, 1, 1, 0, [1, 1, 0, 0, 0, 0]>, <45, 4, 17, 13, 2, 0, 1, [1, 0, 0, 0, 0, 1]>, <46, 5, 18, 13, 2, 0, 1, [1, 0, 0, 0, 0, 1]>, <47, 6, 19, 13, 2, 0, 1, [1, 0, 0, 0, 0, 1]>, <48, 13, 26, 13, 2, 0, 1, [1, 0, 0, 0, 0, 1]>, <49, 14, 27, 13, 2, 0, 1, [1, 0, 0, 0, 0, 1]>, <50, 15, 28, 13, 2, 0, 1, [1, 0, 0, 0, 0, 1]>, <51, 18, 31, 13, 2, 0, 1, [1, 0, 0, 0, 0, 1]>, <52, 19, 32, 13, 2, 0, 1, [1, 0, 0, 0, 0, 1]>, <53, 20, 33, 13, 2, 0, 1, [1, 0, 0, 0, 0, 1]>, <54, 21, 34, 13, 2, 0, 1, [1, 0, 0, 0, 0, 1]>, <55, 22, 35, 13, 2, 0, 1, [1, 0, 0, 0, 0, 1]>, <56, 4, 17, 13, 3, 0, 0, [0, 0, 1, 1, 0, 0]>, <57, 5, 18, 13, 3, 0, 0, [0, 0, 1, 1, 0, 0]>, <58, 6, 19, 13, 3, 0, 0, [0, 0, 1, 1, 0, 0]>, <59, 13, 26, 13, 3, 0, 0, [0, 0, 1, 1, 0, 0]>, <60, 14, 27, 13, 3, 0, 0, [0, 0, 1, 1, 0, 0]>, <61, 15, 28, 13, 3, 0, 0, [0, 0, 1, 1, 0, 0]>, <62, 18, 31, 13, 3, 0, 0, [0, 0, 1, 1, 0, 0]>, <63, 19, 32, 13, 3, 0, 0, [0, 0, 1, 1, 0, 0]>, <64, 20, 33, 13, 3, 0, 0, [0, 0, 1, 1, 0, 0]>, <65, 21, 34, 13, 3, 0, 0, [0, 0, 1, 1, 0, 0]>, <66, 22, 35, 13, 3, 0, 0, [0, 0, 1, 1, 0, 0]>, <67, 2, 17, 15, 4, 1, 0, [0, 1, 1, 0, 0, 0]>, <68, 3, 18, 15, 4, 1, 0, [0, 1, 1, 0, 0, 0]>, <69, 4, 19, 15, 4, 1, 0, [0, 1, 1, 0, 0, 0]>, <70, 5, 20, 15, 4, 1, 0, [0, 1, 1, 0, 0, 0]>, <71, 6, 21, 15, 4, 1, 0, [0, 1, 1, 0, 0, 0]>, <72, 11, 26, 15, 4, 1, 0, [0, 1, 1, 0, 0, 0]>, <73, 12, 27, 15, 4, 1, 0, [0, 1, 1, 0, 0, 0]>, <74, 13, 28, 15, 4, 1, 0, [0, 1, 1, 0, 0, 0]>, <75, 14, 29, 15, 4, 1, 0, [0, 1, 1, 0, 0, 0]>, <76, 15, 30, 15, 4, 1, 0, [0, 1, 1, 0, 0, 0]>, <77, 16, 31, 15, 4, 1, 0, [0, 1, 1, 0, 0, 0]>, <78, 17, 32, 15, 4, 1, 0, [0, 1, 1, 0, 0, 0]>, <79, 18, 33, 15, 4, 1, 0, [0, 1, 1, 0, 0, 0]>, <80, 19, 34, 15, 4, 1, 0, [0, 1, 1, 0, 0, 0]>, <81, 20, 35, 15, 4, 1, 0, [0, 1, 1, 0, 0, 0]>, <82, 5, 15, 10, 5, 1, 0, [0, 1, 1, 0, 0, 0]>, <83, 6, 16, 10, 5, 1, 0, [0, 1, 1, 0, 0, 0]>, <84, 14, 24, 10, 5, 1, 0, [0, 1, 1, 0, 0, 0]>, <85, 15, 25, 10, 5, 1, 0, [0, 1, 1, 0, 0, 0]>, <86, 21, 31, 10, 5, 1, 0, [0, 1, 1, 0, 0, 0]>, <87, 22, 32, 10, 5, 1, 0, [0, 1, 1, 0, 0, 0]>, <88, 23, 33, 10, 5, 1, 0, [0, 1, 1, 0, 0, 0]>, <89, 24, 34, 10, 5, 1, 0, [0, 1, 1, 0, 0, 0]>, <90, 5, 14, 9, 6, 0, 0, [0, 0, 0, 1, 1, 0]>, <91, 6, 15, 9, 6, 0, 0, [0, 0, 0, 1, 1, 0]>, <92, 14, 23, 9, 6, 0, 0, [0, 0, 0, 1, 1, 0]>, <93, 15, 24, 9, 6, 0, 0, [0, 0, 0, 1, 1, 0]>, <94, 22, 31, 9, 6, 0, 0, [0, 0, 0, 1, 1, 0]>, <95, 23, 32, 9, 6, 0, 0, [0, 0, 0, 1, 1, 0]>, <96, 24, 33, 9, 6, 0, 0, [0, 0, 0, 1, 1, 0]>, <97, 5, 17, 12, 7, 0, 1, [0, 0, 0, 0, 1, 1]>, <98, 6, 18, 12, 7, 0, 1, [0, 0, 0, 0, 1, 1]>, <99, 14, 26, 12, 7, 0, 1, [0, 0, 0, 0, 1, 1]>, <100, 15, 27, 12, 7, 0, 1, [0, 0, 0, 0, 1, 1]>, <101, 19, 31, 12, 7, 0, 1, [0, 0, 0, 0, 1, 1]>, <102, 20, 32, 12, 7, 0, 1, [0, 0, 0, 0, 1, 1]>, <103, 21, 33, 12, 7, 0, 1, [0, 0, 0, 0, 1, 1]>, <104, 22, 34, 12, 7, 0, 1, [0, 0, 0, 0, 1, 1]>, <105, 23, 35, 12, 7, 0, 1, [0, 0, 0, 0, 1, 1]>, <106, 5, 17, 12, 8, 1, 0, [0, 0, 1, 1, 0, 0]>, <107, 6, 18, 12, 8, 1, 0, [0, 0, 1, 1, 0, 0]>, <108, 14, 26, 12, 8, 1, 0, [0, 0, 1, 1, 0, 0]>, <109, 15, 27, 12, 8, 1, 0, [0, 0, 1, 1, 0, 0]>, <110, 19, 31, 12, 8, 1, 0, [0, 0, 1, 1, 0, 0]>, <111, 20, 32, 12, 8, 1, 0, [0, 0, 1, 1, 0, 0]>, <112, 21, 33, 12, 8, 1, 0, [0, 0, 1, 1, 0, 0]>, <113, 22, 34, 12, 8, 1, 0, [0, 0, 1, 1, 0, 0]>, <114, 23, 35, 12, 8, 1, 0, [0, 0, 1, 1, 0, 0]>, <115, 4, 17, 13, 9, 0, 0, [1, 0, 0, 0, 0, 1]>, <116, 5, 18, 13, 9, 0, 0, [1, 0, 0, 0, 0, 1]>, <117, 6, 19, 13, 9, 0, 0, [1, 0, 0, 0, 0, 1]>, <118, 13, 26, 13, 9, 0, 0, [1, 0, 0, 0, 0, 1]>, <119, 14, 27, 13, 9, 0, 0, [1, 0, 0, 0, 0, 1]>, <120, 15, 28, 13, 9, 0, 0, [1, 0, 0, 0, 0, 1]>, <121, 18, 31, 13, 9, 0, 0, [1, 0, 0, 0, 0, 1]>, <122, 19, 32, 13, 9, 0, 0, [1, 0, 0, 0, 0, 1]>, <123, 20, 33, 13, 9, 0, 0, [1, 0, 0, 0, 0, 1]>, <124, 21, 34, 13, 9, 0, 0, [1, 0, 0, 0, 0, 1]>, <125, 22, 35, 13, 9, 0, 0, [1, 0, 0, 0, 0, 1]>, <126, 3, 17, 14, 10, 0, 1, [0, 0, 1, 1, 0, 0]>, <127, 4, 18, 14, 10, 0, 1, [0, 0, 1, 1, 0, 0]>, <128, 5, 19, 14, 10, 0, 1, [0, 0, 1, 1, 0, 0]>, <129, 6, 20, 14, 10, 0, 1, [0, 0, 1, 1, 0, 0]>, <130, 12, 26, 14, 10, 0, 1, [0, 0, 1, 1, 0, 0]>, <131, 13, 27, 14, 10, 0, 1, [0, 0, 1, 1, 0, 0]>, <132, 14, 28, 14, 10, 0, 1, [0, 0, 1, 1, 0, 0]>, <133, 15, 29, 14, 10, 0, 1, [0, 0, 1, 1, 0, 0]>, <134, 17, 31, 14, 10, 0, 1, [0, 0, 1, 1, 0, 0]>, <135, 18, 32, 14, 10, 0, 1, [0, 0, 1, 1, 0, 0]>, <136, 19, 33, 14, 10, 0, 1, [0, 0, 1, 1, 0, 0]>, <137, 20, 34, 14, 10, 0, 1, [0, 0, 1, 1, 0, 0]>, <138, 21, 35, 14, 10, 0, 1, [0, 0, 1, 1, 0, 0]>, <139, 5, 16, 11, 11, 0, 0, [0, 0, 0, 0, 1, 1]>, <140, 6, 17, 11, 11, 0, 0, [0, 0, 0, 0, 1, 1]>, <141, 14, 25, 11, 11, 0, 0, [0, 0, 0, 0, 1, 1]>, <142, 15, 26, 11, 11, 0, 0, [0, 0, 0, 0, 1, 1]>, <143, 20, 31, 11, 11, 0, 0, [0, 0, 0, 0, 1, 1]>, <144, 21, 32, 11, 11, 0, 0, [0, 0, 0, 0, 1, 1]>, <145, 22, 33, 11, 11, 0, 0, [0, 0, 0, 0, 1, 1]>, <146, 23, 34, 11, 11, 0, 0, [0, 0, 0, 0, 1, 1]>, <147, 24, 35, 11, 11, 0, 0, [0, 0, 0, 0, 1, 1]>, <148, 5, 15, 10, 12, 0, 0, [1, 1, 0, 0, 0, 0]>, <149, 6, 16, 10, 12, 0, 0, [1, 1, 0, 0, 0, 0]>, <150, 14, 24, 10, 12, 0, 0, [1, 1, 0, 0, 0, 0]>, <151, 15, 25, 10, 12, 0, 0, [1, 1, 0, 0, 0, 0]>, <152, 21, 31, 10, 12, 0, 0, [1, 1, 0, 0, 0, 0]>, <153, 22, 32, 10, 12, 0, 0, [1, 1, 0, 0, 0, 0]>, <154, 23, 33, 10, 12, 0, 0, [1, 1, 0, 0, 0, 0]>, <155, 24, 34, 10, 12, 0, 0, [1, 1, 0, 0, 0, 0]>, <156, 3, 17, 14, 13, 0, 1, [1, 0, 0, 0, 0, 1]>, <157, 4, 18, 14, 13, 0, 1, [1, 0, 0, 0, 0, 1]>, <158, 5, 19, 14, 13, 0, 1, [1, 0, 0, 0, 0, 1]>, <159, 6, 20, 14, 13, 0, 1, [1, 0, 0, 0, 0, 1]>, <160, 12, 26, 14, 13, 0, 1, [1, 0, 0, 0, 0, 1]>, <161, 13, 27, 14, 13, 0, 1, [1, 0, 0, 0, 0, 1]>, <162, 14, 28, 14, 13, 0, 1, [1, 0, 0, 0, 0, 1]>, <163, 15, 29, 14, 13, 0, 1, [1, 0, 0, 0, 0, 1]>, <164, 17, 31, 14, 13, 0, 1, [1, 0, 0, 0, 0, 1]>, <165, 18, 32, 14, 13, 0, 1, [1, 0, 0, 0, 0, 1]>, <166, 19, 33, 14, 13, 0, 1, [1, 0, 0, 0, 0, 1]>, <167, 20, 34, 14, 13, 0, 1, [1, 0, 0, 0, 0, 1]>, <168, 21, 35, 14, 13, 0, 1, [1, 0, 0, 0, 0, 1]>, <169, 5, 15, 10, 14, 0, 0, [0, 0, 0, 1, 1, 0]>, <170, 6, 16, 10, 14, 0, 0, [0, 0, 0, 1, 1, 0]>, <171, 14, 24, 10, 14, 0, 0, [0, 0, 0, 1, 1, 0]>, <172, 15, 25, 10, 14, 0, 0, [0, 0, 0, 1, 1, 0]>, <173, 21, 31, 10, 14, 0, 0, [0, 0, 0, 1, 1, 0]>, <174, 22, 32, 10, 14, 0, 0, [0, 0, 0, 1, 1, 0]>, <175, 23, 33, 10, 14, 0, 0, [0, 0, 0, 1, 1, 0]>, <176, 24, 34, 10, 14, 0, 0, [0, 0, 0, 1, 1, 0]>};
